12 24 6 10
8 18 19 3 16 9 7 12 6 7 1 1 7 17 3 15 18 10 6 6 19 11 18 18 
5.59 0.13 4.63 1.9 5.62 6.2 5.25 6.38 6.3 7.74 0.28 3.33 3.08 7.22 4.71 6.95 0 1 5.51 3.76 7.95 6.95 1.92 3.1 
6.25 1.03 2.48 1.39 6.14 7.57 7.43 0.04 7.76 2.67 1.61 5.82 6.62 5.08 6.46 3.42 5.77 1.76 0.19 1.18 2.67 7.76 2.46 3.63 
5.7 0.98 7.69 3.47 1.13 5.45 1.03 2.9 7.64 0.73 1.94 1.08 1.94 1.68 2.97 0.9 7.67 2.87 2.78 6.28 7.94 1.6 3.97 0.93 
5.57 0.6 3 6.84 1.91 7.41 5.79 6.73 4.23 0.4 2.02 3.35 1.82 1.39 6.05 2.39 2.79 1.08 4.84 5.91 7.81 0.67 7.25 7.54 
6.65 2.16 3.36 1.69 4.15 6.91 1.91 4.08 1.28 5.05 6.31 7.92 1.07 6.26 7.18 3.62 3.34 5.66 2.72 1.84 0.16 5.85 7.69 3.55 
0.94 1.53 5.02 3.7 0.9 7.72 1.01 0.63 6.68 1.55 5.88 4.44 6.41 4.93 6.7 0.74 6.19 6.32 2.71 1.28 3.01 7.9 6.81 4.29 
4 4 4 4 4 4 4 4 4 4 4 4 4 4 4 4 4 4 4 4 4 4 4 4 
7.29 6.84 1.43 6.82 2.16 4.52 3.42 0.26 5.92 0.93 0.05 0.16 1.58 2.89 4.57 6.69 5.66 0.37 3.82 3.86 7.73 7.34 1.73 4.49 
0.72 6.29 6.6 4.37 7.37 1.85 5.91 2.13 1.99 7.92 3.44 6.47 1.16 5.57 1.17 7.58 0.1 3.33 1.6 4.16 7.45 6.13 2.94 0.94 
1.32 6.07 4.15 4.23 3.82 7.49 1.65 3.25 1.04 7.65 3.39 7.26 6.79 3.94 5.75 0.49 1.74 7.96 4.62 7.88 2.2 4.85 3.3 1.63 
2.56 2.44 4.43 7.14 2.97 1.12 5.68 0.84 7.72 2.51 0.51 5.65 7.85 5.43 1.16 4.59 7.98 7.59 6.1 3.05 6.22 1.43 4.24 5.08 
2.35 7.6 5.42 7.66 6.04 5.8 6.34 4.33 1.86 6.07 3.99 1.09 1.43 2.36 1.71 3.1 5.16 6.59 7 2.82 0.34 4.35 1.64 6.4 
1 1 1 1 1 1 1 1 1 1 1 1 1 1 1 1 1 1 1 1 1 1 1 1 
1 1 1 1 1 1 1 1 1 1 1 1 1 1 1 1 1 1 1 1 1 1 1 1 
1 1 1 1 1 1 1 1 1 1 1 1 1 1 1 1 1 1 1 1 1 1 1 1 
1 1 1 1 1 1 1 1 1 1 1 1 1 1 1 1 1 1 1 1 1 1 1 1 
1 1 1 1 1 1 1 1 1 1 1 1 1 1 1 1 1 1 1 1 1 1 1 1 
1 1 1 1 1 1 1 1 1 1 1 1 1 1 1 1 1 1 1 1 1 1 1 1 
1 1 1 1 1 1 1 1 1 1 1 1 1 1 1 1 1 1 1 1 1 1 1 1 
1 1 1 1 1 1 1 1 1 1 1 1 1 1 1 1 1 1 1 1 1 1 1 1 
1 1 1 1 1 1 1 1 1 1 1 1 1 1 1 1 1 1 1 1 1 1 1 1 
1 1 1 1 1 1 1 1 1 1 1 1 1 1 1 1 1 1 1 1 1 1 1 1 
1 1 1 1 1 1 1 1 1 1 1 1 1 1 1 1 1 1 1 1 1 1 1 1 
1 1 1 1 1 1 1 1 1 1 1 1 1 1 1 1 1 1 1 1 1 1 1 1 
0.01 0.01 0.01 0.01 0.01 0.01 0.01 0.01 0.01 0.01 0.01 0.01 0.01 0.01 0.01 0.01 0.01 0.01 0.01 0.01 0.01 0.01 0.01 0.01 
0.02 0.02 0.02 0.02 0.02 0.02 0.02 0.02 0.02 0.02 0.02 0.02 0.02 0.02 0.02 0.02 0.02 0.02 0.02 0.02 0.02 0.02 0.02 0.02 
0.03 0.03 0.03 0.03 0.03 0.03 0.03 0.03 0.03 0.03 0.03 0.03 0.03 0.03 0.03 0.03 0.03 0.03 0.03 0.03 0.03 0.03 0.03 0.03 
0.04 0.04 0.04 0.04 0.04 0.04 0.04 0.04 0.04 0.04 0.04 0.04 0.04 0.04 0.04 0.04 0.04 0.04 0.04 0.04 0.04 0.04 0.04 0.04 
0.05 0.05 0.05 0.05 0.05 0.05 0.05 0.05 0.05 0.05 0.05 0.05 0.05 0.05 0.05 0.05 0.05 0.05 0.05 0.05 0.05 0.05 0.05 0.05 
0.06 0.06 0.06 0.06 0.06 0.06 0.06 0.06 0.06 0.06 0.06 0.06 0.06 0.06 0.06 0.06 0.06 0.06 0.06 0.06 0.06 0.06 0.06 0.06 
0.07 0.07 0.07 0.07 0.07 0.07 0.07 0.07 0.07 0.07 0.07 0.07 0.07 0.07 0.07 0.07 0.07 0.07 0.07 0.07 0.07 0.07 0.07 0.07 
0.2 0.2 0.2 0.2 0.2 0.2 0.2 0.2 0.2 0.2 0.2 0.2 0.2 0.2 0.2 0.2 0.2 0.2 0.2 0.2 0.2 0.2 0.2 0.2 
0.4 0.4 0.4 0.4 0.4 0.4 0.4 0.4 0.4 0.4 0.4 0.4 0.4 0.4 0.4 0.4 0.4 0.4 0.4 0.4 0.4 0.4 0.4 0.4 
0.6 0.6 0.6 0.6 0.6 0.6 0.6 0.6 0.6 0.6 0.6 0.6 0.6 0.6 0.6 0.6 0.6 0.6 0.6 0.6 0.6 0.6 0.6 0.6 
0.8 0.8 0.8 0.8 0.8 0.8 0.8 0.8 0.8 0.8 0.8 0.8 0.8 0.8 0.8 0.8 0.8 0.8 0.8 0.8 0.8 0.8 0.8 0.8 
1 1 1 1 1 1 1 1 1 1 1 1 1 1 1 1 1 1 1 1 1 1 1 1 
